46
 energy: -85.063900934396 gnorm: 0.000617103538 xtb: 6.6.1 (8d0f1dd)
C           -3.75091169978814       -1.52240258162523        0.90009274485683
C           -5.03089080824555       -0.84839466107239        1.19418456634801
C           -5.21079988184061        0.46000219410001        0.50516148670776
C           -6.38089165974833        1.19369161187609        0.69108642123188
C           -6.57240596032035        2.40795696948730        0.06521709631243
C           -5.57607157126222        2.90551824981208       -0.76703243672174
Cl          -5.80718090050474        4.43685577605045       -1.56143427144619
C           -4.41056290677687        2.20363733949709       -0.97000768944398
C           -4.21895772379358        0.97322925052673       -0.33337398458251
C           -2.95295838654766        0.25716925631791       -0.58352596725652
O           -2.09711192620613        0.72462907205457       -1.33349278037453
C           -2.79070454652049       -1.03629828523107        0.09501608811133
C           -1.54641590128674       -1.79141529663663       -0.14244247023546
C           -0.31694630118705       -1.14296970388027       -0.10925398925592
C            0.84602801263201       -1.86196242437043       -0.33677181317902
N            2.11038341938210       -1.21014146807349       -0.32719954078684
N            2.95223074432523       -1.63800967065279       -1.27788014512305
N            4.09344878653931       -1.17311345961047       -1.41976277664186
C            4.55644030158057       -0.17340952237604       -0.60331085841989
C            5.83786464604927        0.34951992334629       -0.80328227533177
C            6.33051524774296        1.35189833263071        0.00760779764759
C            7.69398812875954        1.91623826220889       -0.19625641832706
C            5.50542178017131        1.82944668958034        1.04486267449221
Cl           6.09276065838034        3.08422016154227        2.08229686857127
C            4.24144351201860        1.33360460346184        1.26724939721945
C            3.75184621405066        0.32433273749838        0.43815873958782
C            2.42637544680009       -0.24569178481825        0.62779491117878
O            1.66028123074791        0.04729828514431        1.53536785800207
C            0.80104216370969       -3.22294189169280       -0.61232403480385
C           -0.42393901869768       -3.86320684266618       -0.64941108656597
C           -1.58957025179464       -3.15703990168924       -0.41371678363201
H           -3.58834115672899       -2.46979481271046        1.39511555401682
H           -5.11451981402576       -0.70688614809616        2.27748231639166
H           -5.85464628514445       -1.51993975847676        0.92839284549876
H           -7.15203717803144        0.80523478598330        1.33771808418859
H           -7.47912923344263        2.97111823252330        0.21277733160483
H           -3.62859656736526        2.57661058924372       -1.61401080513888
H           -0.27031036767824       -0.08545444821391        0.09384562483341
H            6.43100676476347       -0.05078843605908       -1.60881815849248
H            7.63385554061065        2.99255428898197       -0.34263873109809
H            8.30332761896607        1.74313414267351        0.68848437083060
H            8.17262104442992        1.46145723735666       -1.05614426564113
H            3.61468989256555        1.70446706665211        2.06324868411558
H            1.71822822572275       -3.75605739170984       -0.80069115179295
H           -0.46678182711117       -4.91872329093072       -0.86503054681867
H           -2.54311748590292       -3.65918328795614       -0.45918012063836
